c description: Random 3-CNF over 14 variables and 59 clauses
c generator: CNFgen (0.9.2)
c copyright: (C) 2012-2022 Massimo Lauria <massimo.lauria@uniroma1.it>
c url: https://massimolauria.net/cnfgen
c command line: cnfgen --output ../CNF/14_bit_59_11.cnf randkcnf 3 14 59
c
p cnf 14 59
4 -10 -14 0
-3 -6 -9 0
2 5 -13 0
1 6 7 0
-3 4 9 0
-5 8 10 0
1 5 9 0
-6 -8 9 0
5 12 -13 0
-1 6 8 0
-2 -11 -12 0
3 9 -10 0
-1 5 -7 0
-3 5 -10 0
2 7 10 0
4 -8 -14 0
4 7 -10 0
-1 -5 -6 0
5 -10 14 0
10 13 14 0
2 4 -14 0
-3 8 -9 0
4 7 13 0
1 6 -7 0
6 -7 -9 0
1 5 -8 0
1 -5 13 0
-1 -4 9 0
-2 9 11 0
-2 4 14 0
-1 9 -10 0
-9 -10 -12 0
5 -12 -14 0
1 11 -13 0
4 -7 9 0
3 -6 -11 0
6 7 -8 0
9 -11 12 0
3 -5 6 0
-2 -7 -12 0
-1 2 8 0
5 10 -13 0
2 4 9 0
-2 -3 6 0
1 -4 -5 0
-1 6 9 0
3 8 -14 0
5 11 14 0
-5 11 -14 0
-5 -6 13 0
-3 6 14 0
2 -11 -14 0
-2 -4 -6 0
-2 -3 9 0
1 6 10 0
-2 -7 -13 0
-2 7 11 0
9 -11 -14 0
-7 10 -13 0
